Using license file /home/benedond/gurobi.lic
Using gurobi.env file
Set parameter Threads to value 1
Academic license - for non-commercial use only
Changed value of parameter TimeLimit to 300.0
   Prev: inf  Min: 0.0  Max: inf  Default: inf
Gurobi Optimizer version 9.0.1 build v9.0.1rc0 (linux64)
Optimize a model with 5075 rows, 2520 columns and 19738 nonzeros
Model fingerprint: 0xf99c7eff
Variable types: 35 continuous, 2485 integer (2450 binary)
Coefficient statistics:
  Matrix range     [2e-01, 5e+03]
  Objective range  [7e-04, 2e-01]
  Bounds range     [1e+00, 1e+00]
  RHS range        [1e+00, 5e+03]

---------------------------------------------------------------------------
Multi-objectives: starting optimization with 1 objectives ... 
---------------------------------------------------------------------------
---------------------------------------------------------------------------

Multi-objectives: optimize objective 1 (min avg power cons) ...
---------------------------------------------------------------------------

Optimize a model with 5075 rows, 2520 columns and 19738 nonzeros
Variable types: 35 continuous, 2485 integer (2450 binary)
Coefficient statistics:
  Matrix range     [2e-01, 5e+03]
  Objective range  [7e-04, 2e-01]
  Bounds range     [1e+00, 1e+00]
  RHS range        [1e+00, 5e+03]
Presolve removed 3065 rows and 1524 columns
Presolve time: 0.28s
Presolved: 2010 rows, 996 columns, 7546 nonzeros
Variable types: 32 continuous, 964 integer (932 binary)

Root relaxation: objective 1.430924e+00, 342 iterations, 0.01 seconds

    Nodes    |    Current Node    |     Objective Bounds      |     Work
 Expl Unexpl |  Obj  Depth IntInf | Incumbent    BestBd   Gap | It/Node Time

     0     0    1.43092    0   78          -    1.43092      -     -    0s
H    0     0                       3.8976759    1.43092  63.3%     -    0s
H    0     0                       3.5955586    1.43092  60.2%     -    0s
     0     0    1.43813    0   99    3.59556    1.43813  60.0%     -    0s
H    0     0                       3.5804000    1.43813  59.8%     -    0s
     0     0    1.43813    0  134    3.58040    1.43813  59.8%     -    0s
     0     0    1.49882    0  139    3.58040    1.49882  58.1%     -    0s
     0     0    1.51158    0  108    3.58040    1.51158  57.8%     -    0s
     0     0    1.55160    0  100    3.58040    1.55160  56.7%     -    0s
H    0     0                       3.4837448    1.55160  55.5%     -    0s
     0     0    1.55423    0  110    3.48374    1.55423  55.4%     -    0s
     0     0    1.61307    0  145    3.48374    1.61307  53.7%     -    0s
     0     0    1.62167    0  148    3.48374    1.62167  53.5%     -    0s
     0     0    1.66069    0  129    3.48374    1.66069  52.3%     -    0s
     0     0    1.68258    0  127    3.48374    1.68258  51.7%     -    0s
     0     0    1.70623    0  125    3.48374    1.70623  51.0%     -    0s
     0     0    1.71457    0  126    3.48374    1.71457  50.8%     -    1s
     0     0    1.72169    0  136    3.48374    1.72169  50.6%     -    1s
     0     0    1.72318    0  142    3.48374    1.72318  50.5%     -    1s
     0     0    1.75343    0  167    3.48374    1.75343  49.7%     -    1s
     0     0    1.75875    0  132    3.48374    1.75875  49.5%     -    1s
     0     0    1.75917    0  136    3.48374    1.75917  49.5%     -    1s
     0     0    1.75946    0  164    3.48374    1.75946  49.5%     -    1s
     0     0    1.75949    0  173    3.48374    1.75949  49.5%     -    1s
     0     0    1.77400    0  162    3.48374    1.77400  49.1%     -    1s
H    0     0                       3.4284207    1.77400  48.3%     -    1s
     0     0    1.78551    0  214    3.42842    1.78551  47.9%     -    1s
     0     0    1.78704    0  206    3.42842    1.78704  47.9%     -    1s
     0     0    1.78788    0  204    3.42842    1.78788  47.9%     -    1s
     0     0    1.78870    0  209    3.42842    1.78870  47.8%     -    1s
     0     0    1.78872    0  213    3.42842    1.78872  47.8%     -    1s
     0     0    1.80113    0  156    3.42842    1.80113  47.5%     -    1s
     0     0    1.80464    0  160    3.42842    1.80464  47.4%     -    1s
     0     0    1.80688    0  153    3.42842    1.80688  47.3%     -    1s
     0     0    1.80757    0  156    3.42842    1.80757  47.3%     -    1s
     0     0    1.80772    0  161    3.42842    1.80772  47.3%     -    1s
     0     0    1.81102    0  140    3.42842    1.81102  47.2%     -    1s
     0     0    1.81199    0  156    3.42842    1.81199  47.1%     -    1s
     0     0    1.81232    0  151    3.42842    1.81232  47.1%     -    1s
     0     0    1.81232    0  154    3.42842    1.81232  47.1%     -    1s
     0     0    1.81348    0  153    3.42842    1.81348  47.1%     -    1s
     0     0    1.81404    0  153    3.42842    1.81404  47.1%     -    1s
     0     0    1.81408    0  159    3.42842    1.81408  47.1%     -    1s
     0     0    1.81631    0  162    3.42842    1.81631  47.0%     -    1s
     0     0    1.81700    0  154    3.42842    1.81700  47.0%     -    1s
     0     0    1.81728    0  159    3.42842    1.81728  47.0%     -    1s
     0     0    1.81739    0  159    3.42842    1.81739  47.0%     -    1s
     0     0    1.81877    0  154    3.42842    1.81877  47.0%     -    1s
     0     0    1.81918    0  150    3.42842    1.81918  46.9%     -    1s
     0     0    1.81950    0  156    3.42842    1.81950  46.9%     -    1s
     0     0    1.81951    0  161    3.42842    1.81951  46.9%     -    1s
     0     0    1.82035    0  165    3.42842    1.82035  46.9%     -    1s
     0     0    1.82035    0  158    3.42842    1.82035  46.9%     -    1s
H    0     0                       3.2968896    1.82036  44.8%     -    3s
     0     2    1.82036    0  158    3.29689    1.82036  44.8%     -    3s
   300   215    2.28185   12  137    3.29689    1.86094  43.6%  76.0    5s
H  540   351                       3.1980828    1.88767  41.0%  79.2   12s
   569   371    1.95366   29  131    3.19808    1.88767  41.0%   102   15s
H  591   365                       3.1192897    1.88767  39.5%   107   15s
H  785   449                       3.1057035    1.88767  39.2%   110   19s
   825   470    2.91502   80   79    3.10570    1.88767  39.2%   109   20s
  1191   622    2.06529   22  119    3.10570    1.92785  37.9%   116   25s
  1839   983    2.91756   84   36    3.10570    1.97384  36.4%   102   30s
H 1975  1078                       3.0835655    1.97700  35.9%   101   33s
  2015  1109    2.44772   25  146    3.08357    1.98149  35.7%   100   35s
  2477  1426    2.43383   36  158    3.08357    2.01211  34.7%  99.2   40s
  3021  1780    2.07949   37  174    3.08357    2.02702  34.3%  98.8   45s
H 3340  2007                       3.0721310    2.03447  33.8%   102   52s
  3509  2152    2.25502   32  101    3.07213    2.03678  33.7%   103   55s
  3897  2440    2.39047   39  143    3.07213    2.04124  33.6%   106   60s
  4309  2737    2.70288   79  115    3.07213    2.05138  33.2%   108   65s
  4714  3031    2.53811   50  128    3.07213    2.05985  33.0%   109   70s
H 5101  3189                       3.0165448    2.06631  31.5%   109   78s
H 5104  3029                       3.0102345    2.06631  31.4%   109   79s
  5115  3037    2.12347   32  268    3.01023    2.06631  31.4%   109   80s
  5136  3051    2.06631   27  212    3.01023    2.06631  31.4%   110   85s
  5177  3076    2.45380   47  188    3.01023    2.06631  31.4%   112   90s
  5333  3164    2.12699   31  148    3.01023    2.06631  31.4%   114   95s
  5537  3242    2.06631   42  145    3.01023    2.06631  31.4%   118  100s
  5884  3375    2.80470  107   59    3.01023    2.06631  31.4%   120  105s
H 5907  3218                       2.9191517    2.06631  29.2%   120  108s
  5943  3235    2.10301   61  128    2.91915    2.06631  29.2%   121  110s
  6244  3349    2.06631   28  132    2.91915    2.06631  29.2%   123  115s
  6575  3483    2.53087   57  115    2.91915    2.06631  29.2%   124  120s
  6856  3595    2.26835   54  113    2.91915    2.06631  29.2%   126  125s
  7180  3706    2.20171   40  138    2.91915    2.06631  29.2%   127  130s
  7482  3833    2.82206   65   87    2.91915    2.06631  29.2%   129  135s
  7697  3923    2.49283   59  117    2.91915    2.06631  29.2%   131  140s
  7947  3995    2.21319   43  113    2.91915    2.06631  29.2%   133  145s
  8209  4114    2.24397   62  133    2.91915    2.06631  29.2%   134  150s
  8535  4190    2.46945   50  153    2.91915    2.06631  29.2%   136  155s
  8751  4254    2.48220   44  183    2.91915    2.06631  29.2%   138  160s
  8953  4305    2.25742   45  159    2.91915    2.06631  29.2%   140  165s
  9207  4411    2.50191   53  138    2.91915    2.06631  29.2%   142  170s
  9429  4450    2.85606   69  124    2.91915    2.06631  29.2%   144  175s
  9642  4531    2.79468   64  151    2.91915    2.06631  29.2%   146  180s
  9839  4612    2.71161   52  101    2.91915    2.06631  29.2%   147  190s
 10045  4672    2.21582   44  133    2.91915    2.06631  29.2%   148  195s
 10231  4718    2.52052   55  161    2.91915    2.06631  29.2%   150  200s
 10597  4818    2.22688   36  126    2.91915    2.06631  29.2%   150  205s
 10902  4936    2.39000   37  196    2.91915    2.06631  29.2%   151  210s
 11118  5009    2.61382   76  156    2.91915    2.06631  29.2%   153  215s
 11485  5091    2.45624   57  167    2.91915    2.06631  29.2%   153  220s
 11667  5147    2.47517   61  149    2.91915    2.06631  29.2%   154  225s
 11938  5213    2.19528   55  155    2.91915    2.06897  29.1%   155  230s
 12207  5323    2.40098   55  111    2.91915    2.07302  29.0%   157  235s
 12571  5434    2.70154   59   97    2.91915    2.07804  28.8%   157  240s
 12926  5540    2.50736   71   94    2.91915    2.08099  28.7%   157  245s
 13232  5583    2.33056   59  119    2.91915    2.08431  28.6%   157  250s
 13484  5668    2.22044   44  129    2.91915    2.08494  28.6%   158  255s
 13928  5821    2.31856   69  167    2.91915    2.08935  28.4%   158  260s
 14178  5981    2.69370   45  148    2.91915    2.09322  28.3%   159  266s
 14410  6154    2.38519   48   98    2.91915    2.09436  28.3%   159  270s
 14706  6337    2.11789   44  194    2.91915    2.09635  28.2%   160  275s
 15019  6538    2.37581   39  122    2.91915    2.09982  28.1%   160  280s

Cutting planes:
  Gomory: 6
  Cover: 15
  Implied bound: 137
  Projected implied bound: 92
  Clique: 1
  MIR: 143
  Flow cover: 430
  GUB cover: 14
  Mod-K: 8
  RLT: 16
  Relax-and-lift: 422

Explored 15303 nodes (2464323 simplex iterations) in 300.01 seconds
Thread count was 1 (of 4 available processors)

Solution count 10: 2.91915 3.01023 3.01654 ... 3.42842

Time limit reached
Best objective 2.919151735378e+00, best bound 2.101986376524e+00, gap 27.9932%

---------------------------------------------------------------------------
Multi-objectives: stopped in 300.02 seconds, solution count 10
Time Limit reached

